c Random generated cnf formula, satisfiable: true
p cnf 10 50
4 -2 7 0
1 8 3 0
6 7 8 0
8 1 -2 0
9 -2 -3 0
-6 -4 1 0
-10 2 -8 0
-3 -7 -9 0
-9 -4 6 0
9 8 4 0
8 -3 -1 0
3 2 -6 0
8 -10 7 0
-4 -9 5 0
-5 -1 3 0
5 7 -8 0
3 -4 1 0
3 4 10 0
6 10 -1 0
-6 5 1 0
-2 4 -5 0
6 1 3 0
1 8 4 0
8 -3 -2 0
-10 -3 4 0
-7 -3 1 0
5 3 1 0
6 9 8 0
-9 -10 -8 0
8 -10 -9 0
8 -5 -2 0
5 -4 -2 0
-6 1 2 0
-5 -10 -9 0
7 3 -2 0
-8 -1 10 0
-2 -4 6 0
1 -9 7 0
-10 6 -7 0
10 6 5 0
10 -6 -2 0
-10 -1 9 0
-6 -5 2 0
9 -4 10 0
2 -10 -4 0
-5 4 -6 0
9 -7 -6 0
1 10 8 0
-6 2 10 0
-8 3 4 0
